File : Instances/p57
Use 149 s

26986

1 0 1 0 1 1 1 1 1 1 1 0 1 1 0 0 1 0 0 0 0 1 0 0 0 1 0 1 1 0 
7 6 21 27 2 12 21 27 16 28 4 28 13 13 28 7 13 10 16 0 27 16 5 0 10 27 27 28 4 2 6 4 4 16 27 6 8 8 16 16 7 9 6 4 8 9 13 21 6 8 0 16 21 16 8 6 25 9 7 7 4 0 7 8 13 25 5 28 6 25 7 12 6 9 5 13 10 5 8 16 10 0 9 25 4 13 6 5 27 7 28 6 25 25 2 13 27 6 0 28 28 21 25 7 4 0 4 16 16 13 9 4 27 12 12 8 28 7 0 8 9 25 28 6 9 16 2 12 9 0 28 21 25 10 5 9 13 8 28 10 12 27 12 25 25 5 16 21 27 25 2 0 5 0 8 12 2 16 13 13 13 27 10 2 5 27 5 4 13 21 5 8 28 10 9 2 0 10 4 10 5 21 2 6 12 8 28 10 0 21 2 21 6 4 7 12 7 21 10 6 
